92	0

0	3	2	3	4
9	4	10	12	13	17
5	3	5	6	9
8	6	7	8	10	12	14	17
2	7	7	8	10	11	12	14	17
1	7	7	8	10	11	12	14	17
7	5	18	19	20	21	32
3	1	13
4	4	10	12	13	17
4	3	15	16	22
8	5	18	19	20	21	32
7	5	23	24	25	27	32
1	3	15	16	22
5	3	15	16	22
1	5	18	19	20	21	32
7	1	23
6	5	18	19	20	21	32
3	4	23	24	25	27
8	5	26	28	29	31	36
4	3	23	24	27
9	3	29	31	36
8	6	26	28	29	30	31	36
1	6	26	28	29	30	31	36
5	3	29	31	36
8	4	33	34	35	37
4	1	34
5	3	29	31	36
8	4	38	39	40	43
2	4	33	34	35	37
5	4	33	34	35	37
6	5	38	39	40	41	42
10	4	33	34	35	37
8	5	44	45	46	48	49
3	5	38	39	40	41	42
4	5	38	39	40	41	42
6	5	38	39	40	41	42
7	5	44	45	46	48	49
4	4	44	46	48	49
6	4	47	50	51	52
7	2	47	51
2	1	43
10	6	53	54	55	58	59	60
2	5	44	45	46	48	49
3	2	47	51
5	2	47	51
1	4	47	50	51	52
6	5	55	56	57	58	59
10	5	55	56	57	58	59
7	4	54	55	58	59
4	5	54	55	58	59	60
1	6	53	54	55	58	59	60
4	5	54	55	58	59	60
7	2	57	62
4	3	56	57	62
4	6	61	62	63	65	66	67
5	4	64	65	66	67
3	5	61	63	65	66	67
3	6	61	62	63	65	66	67
9	3	64	65	67
9	5	61	63	65	66	67
5	5	64	68	69	71	72
9	4	68	69	71	72
5	5	64	68	69	71	72
6	2	70	75
3	4	68	69	71	72
7	4	68	69	71	72
5	1	69
2	2	70	75
2	2	70	75
2	5	73	74	76	78	80
8	5	73	74	76	78	80
9	4	73	74	76	78
8	5	77	79	81	82	83
8	5	77	79	81	82	83
8	5	77	79	81	82	83
7	5	77	79	81	82	83
8	2	85	87
10	2	81	83
7	2	85	87
10	3	81	82	83
7	2	86	87
4	2	84	85
2	2	84	85
9	2	86	87
10	1	86
9	1	88
5	1	88
5	1	89
3	1	90
9	1	91
7	1	92
0	0
